GLPSOL: GLPK LP/MIP Solver, v4.48
Parameter(s) specified in the command line:
 --math bottleneck.mod
Reading model section from bottleneck.mod...
Reading data section from bottleneck.mod...
bottleneck.mod:76: warning: final NL missing before end of file
76 lines were read
Checking (line 10)...
Generating OBJ...
Generating START...
Generating FINIS...
Generating DA...
Generating DB...
Model has been successfully generated
GLPK Integer Optimizer, v4.48
57 rows, 35 columns, 154 non-zeros
21 integer variables, all of which are binary
Preprocessing...
49 rows, 35 columns, 140 non-zeros
21 integer variables, all of which are binary
Scaling...
 A: min|aij| =  1.000e+00  max|aij| =  3.900e+01  ratio =  3.900e+01
GM: min|aij| =  1.000e+00  max|aij| =  1.000e+00  ratio =  1.000e+00
EQ: min|aij| =  1.000e+00  max|aij| =  1.000e+00  ratio =  1.000e+00
2N: min|aij| =  1.000e+00  max|aij| =  1.219e+00  ratio =  1.219e+00
Constructing initial basis...
Size of triangular part = 49
Solving LP relaxation...
GLPK Simplex Optimizer, v4.48
49 rows, 35 columns, 140 non-zeros
      0: obj =  -4.000000000e+01  infeas =  1.610e+02 (0)
*    27: obj =   3.100000000e+01  infeas =  0.000e+00 (0)
*    39: obj =   0.000000000e+00  infeas =  0.000e+00 (0)
OPTIMAL SOLUTION FOUND
Integer optimization begins...
+    39: mip =     not found yet >=              -inf        (1; 0)
+   147: >>>>>   2.700000000e+01 >=   0.000000000e+00 100.0% (15; 5)
+   170: >>>>>   2.300000000e+01 >=   0.000000000e+00 100.0% (18; 6)
+   244: >>>>>   1.900000000e+01 >=   4.000000000e+00  78.9% (26; 13)
+   294: >>>>>   1.800000000e+01 >=   5.000000000e+00  72.2% (32; 29)
+   503: >>>>>   1.700000000e+01 >=   1.000000000e+01  41.2% (37; 107)
+   511: >>>>>   1.600000000e+01 >=   1.000000000e+01  37.5% (36; 111)
+   511: mip =   1.600000000e+01 >=     tree is empty   0.0% (0; 247)
INTEGER OPTIMAL SOLUTION FOUND
Time used:   0.0 secs
Memory used: 0.3 Mb (296856 bytes)
Writing tout...
Invalid table driver `GCHART'
bottleneck.mod:49: error on opening table tout
Model postsolving error
